p cnf 60 30
-2 -12 58 0
-60 50 -24 0
10 20 -34 0
-17 -51 -22 0
6 -35 -27 0
-36 -40 -22 0
8 54 -43 0
-32 -57 54 0
31 -40 22 0
51 -58 17 0
-20 35 -58 0
-50 18 41 0
6 -41 -25 0
-26 53 16 0
-55 57 31 0
-23 1 -6 0
24 26 -12 0
-27 -15 3 0
-17 26 -33 0
-59 13 -17 0
-49 -12 -25 0
-18 31 17 0
-6 -17 43 0
-3 34 -41 0
60 8 -58 0
46 -1 -20 0
-48 -54 59 0
48 -18 4 0
-26 46 34 0
-22 -8 42 0
